WARNING: for repeatability, setting FPU to use double precision
============================[ Problem Statistics ]=============================
|                                                                             |
|  Number of variables:            50                                         |
|  Number of clauses:             218                                         |
|  Parse time:                   0.00 s                                       |
|                                                                             |
============================[ Search Statistics ]==============================
| Conflicts |          ORIGINAL         |          LEARNT          | Progress |
|           |    Vars  Clauses Literals |    Limit  Clauses Lit/Cl |          |
===============================================================================
|       100 |      43      197      591 |       79       42      4 | 14.042 % |
===============================================================================
restarts              : 1
conflicts             : 103            (64456 /sec)
decisions             : 119            (0.00 % random) (74468 /sec)
propagations          : 1529           (956821 /sec)
conflict literals     : 412            (16.77 % deleted)
Memory used           : 20.00 MB
CPU time              : 0.001598 s

UNSATISFIABLE
